% Generated by SafeDSE build_dzn.py -- do not edit by hand.
% applications : c_rasta
% platform     : mixed_three_types
% period mode  : global   (C.7)
% fault model  : both
% cost profile : myklebust2015  [100, 113, 225, 518, 906]

% ---- applications ----
nApps = 1;
n = 18;
app = [1, 1, 1, 1, 1, 1, 1, 1, 1, 1, 1, 1, 1, 1, 1, 1, 1, 1];
nParents = 18;
parent = [1, 2, 3, 4, 5, 6, 7, 8, 9, 10, 11, 12, 13, 14, 15, 16, 17, 18];
copy_index = [0, 0, 0, 0, 0, 0, 0, 0, 0, 0, 0, 0, 0, 0, 0, 0, 0, 0];
node_name = ["c_rasta.frontEnd", "c_rasta.rasta", "c_rasta.powspec", "c_rasta.audspec", "c_rasta.compJah", "c_rasta.rastaFilter", "c_rasta.backEnd", "c_rasta.frontEnd~0", "c_rasta.frontEnd~1", "c_rasta.frontEnd~2", "c_rasta.rasta~0", "c_rasta.powspec~0", "c_rasta.audspec~0", "c_rasta.compJah~0", "c_rasta.compJah~1", "c_rasta.compJah~2", "c_rasta.rastaFilter~0", "c_rasta.backEnd~0"];
parent_name = ["c_rasta.frontEnd", "c_rasta.rasta", "c_rasta.powspec", "c_rasta.audspec", "c_rasta.compJah", "c_rasta.rastaFilter", "c_rasta.backEnd", "c_rasta.frontEnd~0", "c_rasta.frontEnd~1", "c_rasta.frontEnd~2", "c_rasta.rasta~0", "c_rasta.powspec~0", "c_rasta.audspec~0", "c_rasta.compJah~0", "c_rasta.compJah~1", "c_rasta.compJah~2", "c_rasta.rastaFilter~0", "c_rasta.backEnd~0"];
tok = array2d(1..18, 1..18,
  [| 1, 0, -1, -1, 0, -1, 0, 0, 0, 0, 0, -1, -1, 0, 0, 0, -1, 0
       | -1, 1, 0, -1, -1, -1, -1, -1, -1, -1, 0, 0, -1, -1, -1, -1, -1, -1
       | -1, -1, 1, 0, -1, -1, -1, -1, -1, -1, -1, 0, 0, -1, -1, -1, -1, -1
       | -1, -1, -1, 1, 0, 0, -1, -1, -1, -1, -1, -1, 0, 0, 0, 0, 0, -1
       | -1, -1, -1, -1, 1, 0, -1, -1, -1, -1, -1, -1, -1, 0, 0, 0, 0, -1
       | -1, -1, -1, -1, -1, 1, 0, -1, -1, -1, -1, -1, -1, -1, -1, -1, 0, 0
       | -1, -1, -1, -1, -1, -1, 1, -1, -1, -1, -1, -1, -1, -1, -1, -1, -1, 0
       | 1, -1, -1, -1, -1, -1, -1, 1, -1, -1, -1, -1, -1, -1, -1, -1, -1, -1
       | 1, -1, -1, -1, -1, -1, -1, -1, 1, 1, -1, -1, -1, -1, -1, -1, -1, -1
       | -1, -1, -1, -1, -1, -1, -1, -1, 1, 1, -1, -1, -1, -1, -1, -1, -1, -1
       | -1, 1, -1, -1, -1, -1, -1, -1, -1, -1, 1, -1, -1, -1, -1, -1, -1, -1
       | -1, -1, 1, -1, -1, -1, -1, -1, -1, -1, -1, 1, -1, -1, -1, -1, -1, -1
       | -1, -1, -1, 1, -1, -1, -1, -1, -1, -1, -1, -1, 1, -1, -1, -1, -1, -1
       | -1, -1, -1, -1, 1, -1, -1, -1, -1, -1, -1, -1, -1, 1, -1, -1, -1, -1
       | -1, -1, -1, -1, 1, -1, -1, -1, -1, -1, -1, -1, -1, -1, 1, 1, -1, -1
       | -1, -1, -1, -1, -1, -1, -1, -1, -1, -1, -1, -1, -1, -1, 1, 1, -1, -1
       | -1, -1, -1, -1, -1, 1, -1, -1, -1, -1, -1, -1, -1, -1, -1, -1, 1, -1
       | -1, -1, -1, -1, -1, -1, 1, -1, -1, -1, -1, -1, -1, -1, -1, -1, -1, 1 |]);

% ---- platform (C.5) ----
P = 28;
nFCR = 10;
nCoreTypes = 3;
nModes = 2;
ctype = [1, 1, 1, 1, 1, 1, 2, 2, 2, 2, 2, 2, 3, 3, 3, 3, 3, 3, 3, 3, 3, 3, 3, 3, 3, 3, 3, 3];
fcr = [1, 1, 2, 2, 3, 3, 4, 4, 5, 5, 6, 6, 7, 7, 7, 7, 8, 8, 8, 8, 9, 9, 9, 9, 10, 10, 10, 10];
core_model = ["cortexR", "ppcE200", "cortexM"];
max_sil = [4, 4, 2];
core_mem = [64000, 48000, 16000];
partitionable = [false, false, false];
partition_cost = [0, 0, 0];
n_modes_of = [2, 1, 2];
fcr_price = [120, 120, 120, 140, 140, 140, 25, 25, 25, 25];
core_price = array2d(1..3, 1..2,
  [| 40, 40
     | 45, 0
     | 8, 11 |]);
core_power = array2d(1..3, 1..2,
  [| 180, 95
     | 150, 0
     | 40, 72 |]);

% symmetry classes: slots that are genuinely interchangeable (C.5)
nSymClasses = 10;
symClassSize = [2, 2, 2, 2, 2, 2, 4, 4, 4, 4];
maxSymClassSize = 4;
symClass = array2d(1..10, 1..4,
  [| 1, 2, 0, 0
     | 3, 4, 0, 0
     | 5, 6, 0, 0
     | 7, 8, 0, 0
     | 9, 10, 0, 0
     | 11, 12, 0, 0
     | 13, 14, 15, 16
     | 17, 18, 19, 20
     | 21, 22, 23, 24
     | 25, 26, 27, 28 |]);
nInterGroups = 0;
maxInterGroupSize = 1;
interGroupSize = [];
interGroup = array2d(1..1, 1..1,
  [| 0 |]);
nTmplGroups = 3;
maxTmplGroupSize = 4;
tmplGroupSize = [3, 3, 4];
tmplGroup = array2d(1..3, 1..4,
  [| 1, 2, 3, 0
     | 4, 5, 6, 0
     | 7, 8, 9, 10 |]);

% ---- timing ----
wcet = array3d(1..18, 1..3, 1..2, [141, 183, 162, 1000000, 226, 169, 31, 40, 36, 1000000, 50, 37, 235, 306, 270, 1000000, 376, 282, 108, 140, 124, 1000000, 173, 130, 170, 221, 195, 1000000, 272, 204, 194, 252, 223, 1000000, 310, 233, 133, 173, 153, 1000000, 213, 160, 141, 183, 162, 1000000, 226, 169, 42, 55, 48, 1000000, 67, 50, 42, 55, 48, 1000000, 67, 50, 9, 12, 10, 1000000, 14, 11, 70, 91, 80, 1000000, 112, 84, 32, 42, 37, 1000000, 51, 38, 170, 221, 195, 1000000, 272, 204, 51, 66, 59, 1000000, 82, 61, 51, 66, 59, 1000000, 82, 61, 58, 75, 67, 1000000, 93, 70, 40, 52, 46, 1000000, 64, 48]);
mem_req = [2, 4, 6, 5, 4, 7, 5, 2, 2, 2, 4, 6, 5, 4, 4, 4, 7, 5];

% ---- safety (C.8) ----
sil_req_parent = [3, 1, 1, 1, 3, 1, 2, 3, 3, 3, 1, 1, 1, 3, 3, 3, 1, 2];
dev_base = [100, 100, 100, 100, 100, 100, 100, 100, 100, 100, 100, 100, 100, 100, 100, 100, 100, 100];
dev_k = array1d(0..4, [100, 113, 225, 518, 906]);
allow_promotion = true;

% ---- design constraints ----
period_ub = [2750];
min_wcet = [141, 31, 235, 108, 170, 194, 133, 141, 42, 42, 9, 70, 32, 170, 51, 51, 58, 40];
min_procs = [1];
period_mode_partitioned = false;

% ---- latency (B.2) ----
nLatCon = 0;
lat_src = [];
lat_dst = [];
lat_rho = [];
lat_ub  = [];

% ---- safety patterns: guarded superposition (C.2) ----
nPat = 9;
pat_name = ["none", "low_sil_doer_checker", "same_cpu_doer_checker", "two_of_two_high_sil", "high_sil_isolated_checker", "mixed_sil_doer_checker", "dual_two_of_two", "one_of_two_failover", "low_sil_diverse_doer_checker"];
pat_recurring = [0, 2, 1, 2, 2, 3, 4, 2, 2];
pat_allowed = array2d(1..18, 1..9,
  [| false, false, false, true, false, true, false, false, false
     | true, false, false, false, false, false, false, false, true
     | true, false, false, false, false, false, false, false, true
     | true, false, false, false, false, false, false, false, true
     | false, false, false, true, false, true, false, false, false
     | true, false, false, false, false, false, false, false, true
     | false, false, false, false, false, false, false, false, true
     | false, false, false, true, false, true, false, false, false
     | false, false, false, true, false, true, false, false, false
     | false, false, false, true, false, true, false, false, false
     | true, false, false, false, false, false, false, false, true
     | true, false, false, false, false, false, false, false, true
     | true, false, false, false, false, false, false, false, true
     | false, false, false, true, false, true, false, false, false
     | false, false, false, true, false, true, false, false, false
     | false, false, false, true, false, true, false, false, false
     | true, false, false, false, false, false, false, false, true
     | false, false, false, false, false, false, false, false, true |]);
par_owner = [1, 2, 3, 4, 5, 6, 7, 1, 1, 1, 2, 3, 4, 5, 5, 5, 6, 7];
node_owner = [1, 2, 3, 4, 5, 6, 7, 1, 1, 1, 2, 3, 4, 5, 5, 5, 6, 7];
owner_node = [1, 2, 3, 4, 5, 6, 7, 1, 1, 1, 2, 3, 4, 5, 5, 5, 6, 7];
node_guard = array2d(1..18, 1..9,
  [| true, true, true, true, true, true, true, true, true
     | true, true, true, true, true, true, true, true, true
     | true, true, true, true, true, true, true, true, true
     | true, true, true, true, true, true, true, true, true
     | true, true, true, true, true, true, true, true, true
     | true, true, true, true, true, true, true, true, true
     | true, true, true, true, true, true, true, true, true
     | false, false, false, true, false, false, false, false, false
     | false, false, false, false, false, true, false, false, false
     | false, false, false, false, false, true, false, false, false
     | false, false, false, false, false, false, false, false, true
     | false, false, false, false, false, false, false, false, true
     | false, false, false, false, false, false, false, false, true
     | false, false, false, true, false, false, false, false, false
     | false, false, false, false, false, true, false, false, false
     | false, false, false, false, false, true, false, false, false
     | false, false, false, false, false, false, false, false, true
     | false, false, false, false, false, false, false, false, true |]);
nPE = 45;
pe_src = [1, 8, 1, 1, 9, 10, 9, 2, 11, 1, 1, 3, 12, 2, 2, 4, 13, 3, 3, 5, 14, 4, 4, 1, 5, 5, 15, 16, 15, 4, 4, 1, 4, 4, 1, 6, 17, 4, 5, 5, 5, 7, 18, 6, 1];
pe_dst = [8, 1, 9, 10, 10, 9, 1, 11, 2, 11, 11, 12, 3, 12, 12, 13, 4, 13, 13, 14, 5, 14, 14, 14, 15, 16, 16, 15, 5, 15, 15, 15, 16, 16, 16, 17, 6, 17, 17, 17, 17, 18, 7, 18, 18];
pe_tok = [0, 1, 0, 0, 1, 1, 1, 0, 1, 0, 0, 0, 1, 0, 0, 0, 1, 0, 0, 0, 1, 0, 0, 0, 0, 0, 1, 1, 1, 0, 0, 0, 0, 0, 0, 0, 1, 0, 0, 0, 0, 0, 1, 0, 0];
pe_owner = [1, 1, 1, 1, 1, 1, 1, 2, 2, 2, 2, 3, 3, 3, 3, 4, 4, 4, 4, 5, 5, 5, 5, 5, 5, 5, 5, 5, 5, 5, 5, 5, 5, 5, 5, 6, 6, 6, 6, 6, 6, 7, 7, 7, 7];
pe_guard = array2d(1..45, 1..9,
  [| false, false, false, true, false, false, false, false, false
     | false, false, false, true, false, false, false, false, false
     | false, false, false, false, false, true, false, false, false
     | false, false, false, false, false, true, false, false, false
     | false, false, false, false, false, true, false, false, false
     | false, false, false, false, false, true, false, false, false
     | false, false, false, false, false, true, false, false, false
     | false, false, false, false, false, false, false, false, true
     | false, false, false, false, false, false, false, false, true
     | false, false, false, false, false, false, false, false, true
     | false, false, false, false, false, false, false, false, true
     | false, false, false, false, false, false, false, false, true
     | false, false, false, false, false, false, false, false, true
     | false, false, false, false, false, false, false, false, true
     | false, false, false, false, false, false, false, false, true
     | false, false, false, false, false, false, false, false, true
     | false, false, false, false, false, false, false, false, true
     | false, false, false, false, false, false, false, false, true
     | false, false, false, false, false, false, false, false, true
     | false, false, false, true, false, false, false, false, false
     | false, false, false, true, false, false, false, false, false
     | false, false, false, true, false, false, false, false, false
     | false, false, false, true, false, false, false, false, false
     | false, false, false, true, false, false, false, false, false
     | false, false, false, false, false, true, false, false, false
     | false, false, false, false, false, true, false, false, false
     | false, false, false, false, false, true, false, false, false
     | false, false, false, false, false, true, false, false, false
     | false, false, false, false, false, true, false, false, false
     | false, false, false, false, false, true, false, false, false
     | false, false, false, false, false, true, false, false, false
     | false, false, false, false, false, true, false, false, false
     | false, false, false, false, false, true, false, false, false
     | false, false, false, false, false, true, false, false, false
     | false, false, false, false, false, true, false, false, false
     | false, false, false, false, false, false, false, false, true
     | false, false, false, false, false, false, false, false, true
     | false, false, false, false, false, false, false, false, true
     | false, false, false, false, false, false, false, false, true
     | false, false, false, false, false, false, false, false, true
     | false, false, false, false, false, false, false, false, true
     | false, false, false, false, false, false, false, false, true
     | false, false, false, false, false, false, false, false, true
     | false, false, false, false, false, false, false, false, true
     | false, false, false, false, false, false, false, false, true |]);
pe_owner2 = [1, 1, 1, 1, 1, 1, 1, 2, 2, 2, 2, 3, 3, 3, 3, 4, 4, 4, 4, 5, 5, 5, 5, 5, 5, 5, 5, 5, 5, 5, 5, 5, 5, 5, 5, 6, 6, 6, 6, 6, 6, 7, 7, 7, 7];
pe_guard2 = array2d(1..45, 1..9,
  [| true, true, true, true, true, true, true, true, true
     | true, true, true, true, true, true, true, true, true
     | true, true, true, true, true, true, true, true, true
     | true, true, true, true, true, true, true, true, true
     | true, true, true, true, true, true, true, true, true
     | true, true, true, true, true, true, true, true, true
     | true, true, true, true, true, true, true, true, true
     | true, true, true, true, true, true, true, true, true
     | true, true, true, true, true, true, true, true, true
     | true, true, true, true, true, true, true, true, true
     | true, true, true, true, true, true, true, true, true
     | true, true, true, true, true, true, true, true, true
     | true, true, true, true, true, true, true, true, true
     | true, true, true, true, true, true, true, true, true
     | true, true, true, true, true, true, true, true, true
     | true, true, true, true, true, true, true, true, true
     | true, true, true, true, true, true, true, true, true
     | true, true, true, true, true, true, true, true, true
     | true, true, true, true, true, true, true, true, true
     | true, true, true, true, true, true, true, true, true
     | true, true, true, true, true, true, true, true, true
     | true, true, true, true, true, true, true, true, true
     | true, true, true, true, true, true, true, true, true
     | true, true, true, true, true, true, true, true, true
     | true, true, true, true, true, true, true, true, true
     | true, true, true, true, true, true, true, true, true
     | true, true, true, true, true, true, true, true, true
     | true, true, true, true, true, true, true, true, true
     | true, true, true, true, true, true, true, true, true
     | true, true, true, true, true, true, true, true, true
     | true, true, true, true, true, true, true, true, true
     | true, true, true, true, true, true, true, true, true
     | true, true, true, true, true, true, true, true, true
     | true, true, true, true, true, true, true, true, true
     | true, true, true, true, true, true, true, true, true
     | true, true, true, true, true, true, true, true, true
     | true, true, true, true, true, true, true, true, true
     | true, true, true, true, true, true, true, true, true
     | true, true, true, true, true, true, true, true, true
     | true, true, true, true, true, true, true, true, true
     | true, true, true, true, true, true, true, true, true
     | true, true, true, true, true, true, true, true, true
     | true, true, true, true, true, true, true, true, true
     | true, true, true, true, true, true, true, true, true
     | true, true, true, true, true, true, true, true, true |]);
nPL = 20;
pl_u = [1, 1, 1, 9, 9, 2, 2, 3, 3, 4, 4, 5, 5, 5, 15, 15, 6, 6, 7, 7];
pl_v = [8, 8, 9, 10, 10, 11, 11, 12, 12, 13, 13, 14, 14, 15, 16, 16, 17, 17, 18, 18];
pl_rel = [3, 4, 3, 3, 4, 3, 4, 3, 4, 3, 4, 3, 4, 3, 3, 4, 3, 4, 3, 4];
pl_owner = [1, 1, 1, 1, 1, 2, 2, 3, 3, 4, 4, 5, 5, 5, 5, 5, 6, 6, 7, 7];
pl_guard = array2d(1..20, 1..9,
  [| false, false, false, true, false, false, false, false, false
     | false, false, false, true, false, false, false, false, false
     | false, false, false, false, false, true, false, false, false
     | false, false, false, false, false, true, false, false, false
     | false, false, false, false, false, true, false, false, false
     | false, false, false, false, false, false, false, false, true
     | false, false, false, false, false, false, false, false, true
     | false, false, false, false, false, false, false, false, true
     | false, false, false, false, false, false, false, false, true
     | false, false, false, false, false, false, false, false, true
     | false, false, false, false, false, false, false, false, true
     | false, false, false, true, false, false, false, false, false
     | false, false, false, true, false, false, false, false, false
     | false, false, false, false, false, true, false, false, false
     | false, false, false, false, false, true, false, false, false
     | false, false, false, false, false, true, false, false, false
     | false, false, false, false, false, false, false, false, true
     | false, false, false, false, false, false, false, false, true
     | false, false, false, false, false, false, false, false, true
     | false, false, false, false, false, false, false, false, true |]);

% ---- TDMA communication ----
nCh = 0;
ch_src = [1]; ch_dst = [1]; ch_msgsize = [0]; ch_app = [1];
ch_block = [1]; ch_send = [1]; ch_rec = [1]; ch_slots_needed = [1];
ch_direct_tok = [0];
ch_rounds = array2d(1..1, 0..16, [0, 0, 0, 0, 0, 0, 0, 0, 0, 0, 0, 0, 0, 0, 0, 0, 0]);
tdma_slots = 16;
tdma_cycle_len = 1;
data_per_slot = 32;
max_buf = 4;
ni_capacity = 100000;
nSep = 0;  sep_a = [1];  sep_b = [1];
comm_sil_mode = 0;
comm_actor = [false, false, false, false, false, false, false, false, false, false, false, false, false, false, false, false, false, false];
