% Generated by SafeDSE build_dzn.py -- do not edit by hand.
% applications : d_jpegEnc1
% platform     : mixed_criticality_demo
% period mode  : global
% fault model  : random_hw
% cost profile : myklebust2015  [100, 113, 225, 518, 906]

% ---- applications ----
nApps = 1;
n = 16;
app = [1, 1, 1, 1, 1, 1, 1, 1, 1, 1, 1, 1, 1, 1, 1, 1];
nParents = 16;
parent = [1, 2, 3, 4, 5, 6, 7, 8, 9, 10, 11, 12, 13, 14, 15, 16];
copy_index = [0, 0, 0, 0, 0, 0, 0, 0, 0, 0, 0, 0, 0, 0, 0, 0];
node_name = ["d_jpegEnc1.getImage_0", "d_jpegEnc1.CC_0", "d_jpegEnc1.DCT_0", "d_jpegEnc1.Huffman_0", "d_jpegEnc1.DCT_1", "d_jpegEnc1.Huffman_1", "d_jpegEnc1.DCT_2", "d_jpegEnc1.Huffman_2", "d_jpegEnc1.DCT_3", "d_jpegEnc1.Huffman_3", "d_jpegEnc1.DCT_4", "d_jpegEnc1.Huffman_4", "d_jpegEnc1.DCT_5", "d_jpegEnc1.Huffman_5", "d_jpegEnc1.CS_0", "d_jpegEnc1.writeImage_0"];
parent_name = ["d_jpegEnc1.getImage_0", "d_jpegEnc1.CC_0", "d_jpegEnc1.DCT_0", "d_jpegEnc1.Huffman_0", "d_jpegEnc1.DCT_1", "d_jpegEnc1.Huffman_1", "d_jpegEnc1.DCT_2", "d_jpegEnc1.Huffman_2", "d_jpegEnc1.DCT_3", "d_jpegEnc1.Huffman_3", "d_jpegEnc1.DCT_4", "d_jpegEnc1.Huffman_4", "d_jpegEnc1.DCT_5", "d_jpegEnc1.Huffman_5", "d_jpegEnc1.CS_0", "d_jpegEnc1.writeImage_0"];
tok = array2d(1..16, 1..16,
  [| 1, 0, -1, -1, -1, -1, -1, -1, -1, -1, -1, -1, -1, -1, -1, -1
       | -1, 1, 0, -1, 0, -1, 0, -1, 0, -1, 0, -1, 0, -1, -1, -1
       | -1, -1, 1, 0, -1, -1, -1, -1, -1, -1, -1, -1, -1, -1, -1, -1
       | -1, -1, -1, 1, -1, -1, -1, -1, -1, -1, -1, -1, -1, -1, 0, -1
       | -1, -1, -1, -1, 1, 0, -1, -1, -1, -1, -1, -1, -1, -1, -1, -1
       | -1, -1, -1, -1, -1, 1, -1, -1, -1, -1, -1, -1, -1, -1, 0, -1
       | -1, -1, -1, -1, -1, -1, 1, 0, -1, -1, -1, -1, -1, -1, -1, -1
       | -1, -1, -1, -1, -1, -1, -1, 1, -1, -1, -1, -1, -1, -1, 0, -1
       | -1, -1, -1, -1, -1, -1, -1, -1, 1, 0, -1, -1, -1, -1, -1, -1
       | -1, -1, -1, -1, -1, -1, -1, -1, -1, 1, -1, -1, -1, -1, 0, -1
       | -1, -1, -1, -1, -1, -1, -1, -1, -1, -1, 1, 0, -1, -1, -1, -1
       | -1, -1, -1, -1, -1, -1, -1, -1, -1, -1, -1, 1, -1, -1, 0, -1
       | -1, -1, -1, -1, -1, -1, -1, -1, -1, -1, -1, -1, 1, 0, -1, -1
       | -1, -1, -1, -1, -1, -1, -1, -1, -1, -1, -1, -1, -1, 1, 0, -1
       | -1, -1, -1, -1, -1, -1, -1, -1, -1, -1, -1, -1, -1, -1, 1, 0
       | -1, -1, -1, -1, -1, -1, -1, -1, -1, -1, -1, -1, -1, -1, -1, 1 |]);

% ---- platform ----
P = 22;
nFCR = 7;
nCoreTypes = 2;
nModes = 2;
ctype = [1, 1, 1, 1, 1, 1, 2, 2, 2, 2, 2, 2, 2, 2, 2, 2, 2, 2, 2, 2, 2, 2];
fcr = [1, 1, 2, 2, 3, 3, 4, 4, 4, 4, 5, 5, 5, 5, 6, 6, 6, 6, 7, 7, 7, 7];
core_model = ["cortexR", "cortexM"];
max_sil = [4, 2];
core_mem = [64000, 16000];
partitionable = [true, false];
partition_cost = [15, 0];
n_modes_of = [2, 2];
fcr_price = [120, 120, 120, 25, 25, 25, 25];
core_price = array2d(1..2, 1..2,
  [| 40, 40
     | 8, 11 |]);
core_power = array2d(1..2, 1..2,
  [| 180, 95
     | 40, 72 |]);

% symmetry classes: slots that are genuinely interchangeable
nSymClasses = 7;
symClassSize = [2, 2, 2, 4, 4, 4, 4];
maxSymClassSize = 4;
symClass = array2d(1..7, 1..4,
  [| 1, 2, 0, 0
     | 3, 4, 0, 0
     | 5, 6, 0, 0
     | 7, 8, 9, 10
     | 11, 12, 13, 14
     | 15, 16, 17, 18
     | 19, 20, 21, 22 |]);
nInterGroups = 0;
maxInterGroupSize = 1;
interGroupSize = [];
interGroup = array2d(1..1, 1..1,
  [| 0 |]);
nTmplGroups = 2;
maxTmplGroupSize = 4;
tmplGroupSize = [3, 4];
tmplGroup = array2d(1..2, 1..4,
  [| 1, 2, 3, 0
     | 4, 5, 6, 7 |]);

% ---- timing ----
wcet = array3d(1..16, 1..2, 1..2, [413, 537, 661, 496, 1101, 1431, 1762, 1321, 252, 328, 403, 302, 340, 442, 544, 408, 252, 328, 403, 302, 340, 442, 544, 408, 252, 328, 403, 302, 340, 442, 544, 408, 252, 328, 403, 302, 340, 442, 544, 408, 252, 328, 403, 302, 340, 442, 544, 408, 252, 328, 403, 302, 340, 442, 544, 408, 2524, 3281, 4038, 3029, 132, 172, 211, 158]);
mem_req = [8, 4, 6, 5, 6, 5, 6, 5, 6, 5, 6, 5, 6, 5, 4, 5];

% ---- safety ----
sil_req_parent = [0, 0, 0, 0, 0, 0, 0, 0, 0, 0, 0, 0, 0, 0, 0, 0];
dev_base = [100, 100, 100, 100, 100, 100, 100, 100, 100, 100, 100, 100, 100, 100, 100, 100];
dev_k = array1d(0..4, [100, 113, 225, 518, 906]);
allow_promotion = true;

% ---- design constraints ----
period_ub = [12354];
min_wcet = [413, 1101, 252, 340, 252, 340, 252, 340, 252, 340, 252, 340, 252, 340, 2524, 132];
min_procs = [1];
period_mode_partitioned = false;

% ---- latency ----
nLatCon = 0;
lat_src = [];
lat_dst = [];
lat_rho = [];
lat_ub  = [];

% ---- safety patterns: guarded superposition ----
% no pattern library supplied -- single trivial `none` pattern
nPat = 1;
pat_name = ["none"];
pat_recurring = [0];
pat_allowed = array2d(1..16, 1..1, [true, true, true, true, true, true, true, true, true, true, true, true, true, true, true, true]);
par_owner = [1, 2, 3, 4, 5, 6, 7, 8, 9, 10, 11, 12, 13, 14, 15, 16];
node_owner = [1, 2, 3, 4, 5, 6, 7, 8, 9, 10, 11, 12, 13, 14, 15, 16];
owner_node = [1, 2, 3, 4, 5, 6, 7, 8, 9, 10, 11, 12, 13, 14, 15, 16];
node_guard = array2d(1..16, 1..1, [true, true, true, true, true, true, true, true, true, true, true, true, true, true, true, true]);
nPE = 0;  pe_src = [1];  pe_dst = [1];  pe_tok = [0];  pe_owner = [1];
pe_guard = array2d(1..1, 1..1, [false]);
pe_owner2 = [1];  pe_guard2 = array2d(1..1, 1..1, [true]);
nPL = 0;  pl_u = [1];  pl_v = [1];  pl_rel = [1];  pl_owner = [1];
pl_guard = array2d(1..1, 1..1, [false]);

% ---- TDMA communication ----
nCh = 0;
ch_src = [1]; ch_dst = [1]; ch_msgsize = [0]; ch_app = [1];
ch_block = [1]; ch_send = [1]; ch_rec = [1]; ch_slots_needed = [1];
ch_direct_tok = [0];
ch_rounds = array2d(1..1, 0..16, [0, 0, 0, 0, 0, 0, 0, 0, 0, 0, 0, 0, 0, 0, 0, 0, 0]);
tdma_slots = 16;
tdma_cycle_len = 1;
data_per_slot = 32;
max_buf = 4;
ni_capacity = 100000;
nSep = 0;  sep_a = [1];  sep_b = [1];
comm_sil_mode = 0;
comm_actor = [false, false, false, false, false, false, false, false, false, false, false, false, false, false, false, false];
