% Generated by SafeDSE build_dzn.py -- do not edit by hand.
% applications : c_rasta
% platform     : mixed_no_isolation
% period mode  : global   (C.7)
% fault model  : systematic_sw
% cost profile : myklebust2015  [100, 113, 225, 518, 906]

% ---- applications ----
nApps = 1;
n = 14;
app = [1, 1, 1, 1, 1, 1, 1, 1, 1, 1, 1, 1, 1, 1];
nParents = 14;
parent = [1, 2, 3, 4, 5, 6, 7, 8, 9, 10, 11, 12, 13, 14];
copy_index = [0, 0, 0, 0, 0, 0, 0, 0, 0, 0, 0, 0, 0, 0];
node_name = ["c_rasta.frontEnd", "c_rasta.rasta", "c_rasta.powspec", "c_rasta.audspec", "c_rasta.compJah", "c_rasta.rastaFilter", "c_rasta.backEnd", "c_rasta.frontEnd~0", "c_rasta.rasta~0", "c_rasta.powspec~0", "c_rasta.audspec~0", "c_rasta.compJah~0", "c_rasta.rastaFilter~0", "c_rasta.backEnd~0"];
parent_name = ["c_rasta.frontEnd", "c_rasta.rasta", "c_rasta.powspec", "c_rasta.audspec", "c_rasta.compJah", "c_rasta.rastaFilter", "c_rasta.backEnd", "c_rasta.frontEnd~0", "c_rasta.rasta~0", "c_rasta.powspec~0", "c_rasta.audspec~0", "c_rasta.compJah~0", "c_rasta.rastaFilter~0", "c_rasta.backEnd~0"];
tok = array2d(1..14, 1..14,
  [| 1, 0, -1, -1, 0, -1, 0, 0, 0, -1, -1, 0, -1, 0
       | -1, 1, 0, -1, -1, -1, -1, -1, 0, 0, -1, -1, -1, -1
       | -1, -1, 1, 0, -1, -1, -1, -1, -1, 0, 0, -1, -1, -1
       | -1, -1, -1, 1, 0, 0, -1, -1, -1, -1, 0, 0, 0, -1
       | -1, -1, -1, -1, 1, 0, -1, -1, -1, -1, -1, 0, 0, -1
       | -1, -1, -1, -1, -1, 1, 0, -1, -1, -1, -1, -1, 0, 0
       | -1, -1, -1, -1, -1, -1, 1, -1, -1, -1, -1, -1, -1, 0
       | 1, -1, -1, -1, -1, -1, -1, 1, -1, -1, -1, -1, -1, -1
       | -1, 1, -1, -1, -1, -1, -1, -1, 1, -1, -1, -1, -1, -1
       | -1, -1, 1, -1, -1, -1, -1, -1, -1, 1, -1, -1, -1, -1
       | -1, -1, -1, 1, -1, -1, -1, -1, -1, -1, 1, -1, -1, -1
       | -1, -1, -1, -1, 1, -1, -1, -1, -1, -1, -1, 1, -1, -1
       | -1, -1, -1, -1, -1, 1, -1, -1, -1, -1, -1, -1, 1, -1
       | -1, -1, -1, -1, -1, -1, 1, -1, -1, -1, -1, -1, -1, 1 |]);

% ---- platform (C.5) ----
P = 22;
nFCR = 7;
nCoreTypes = 2;
nModes = 2;
ctype = [1, 1, 1, 1, 1, 1, 2, 2, 2, 2, 2, 2, 2, 2, 2, 2, 2, 2, 2, 2, 2, 2];
fcr = [1, 1, 2, 2, 3, 3, 4, 4, 4, 4, 5, 5, 5, 5, 6, 6, 6, 6, 7, 7, 7, 7];
core_model = ["cortexR", "cortexM"];
max_sil = [4, 2];
core_mem = [64000, 16000];
partitionable = [false, false];
partition_cost = [0, 0];
n_modes_of = [2, 2];
fcr_price = [120, 120, 120, 25, 25, 25, 25];
core_price = array2d(1..2, 1..2,
  [| 40, 40
     | 8, 11 |]);
core_power = array2d(1..2, 1..2,
  [| 180, 95
     | 40, 72 |]);

% symmetry classes: slots that are genuinely interchangeable (C.5)
nSymClasses = 7;
symClassSize = [2, 2, 2, 4, 4, 4, 4];
maxSymClassSize = 4;
symClass = array2d(1..7, 1..4,
  [| 1, 2, 0, 0
     | 3, 4, 0, 0
     | 5, 6, 0, 0
     | 7, 8, 9, 10
     | 11, 12, 13, 14
     | 15, 16, 17, 18
     | 19, 20, 21, 22 |]);
nInterGroups = 0;
maxInterGroupSize = 1;
interGroupSize = [];
interGroup = array2d(1..1, 1..1,
  [| 0 |]);
nTmplGroups = 2;
maxTmplGroupSize = 4;
tmplGroupSize = [3, 4];
tmplGroup = array2d(1..2, 1..4,
  [| 1, 2, 3, 0
     | 4, 5, 6, 7 |]);

% ---- timing ----
wcet = array3d(1..14, 1..2, 1..2, [141, 183, 226, 169, 31, 40, 50, 37, 235, 306, 376, 282, 108, 140, 173, 130, 170, 221, 272, 204, 194, 252, 310, 233, 133, 173, 213, 160, 42, 55, 67, 50, 9, 12, 14, 11, 70, 91, 112, 84, 32, 42, 51, 38, 51, 66, 82, 61, 58, 75, 93, 70, 40, 52, 64, 48]);
mem_req = [2, 4, 6, 5, 4, 7, 5, 2, 4, 6, 5, 4, 7, 5];

% ---- safety (C.8) ----
sil_req_parent = [2, 1, 1, 1, 2, 1, 2, 2, 1, 1, 1, 2, 1, 2];
dev_base = [100, 100, 100, 100, 100, 100, 100, 100, 100, 100, 100, 100, 100, 100];
dev_k = array1d(0..4, [100, 113, 225, 518, 906]);
allow_promotion = true;

% ---- design constraints ----
period_ub = [2103];
period_mode_partitioned = false;

% ---- latency (B.2) ----
nLatCon = 0;
lat_src = [];
lat_dst = [];
lat_rho = [];
lat_ub  = [];

% ---- safety patterns: guarded superposition (C.2) ----
nPat = 9;
pat_name = ["none", "low_sil_doer_checker", "same_cpu_doer_checker", "two_of_two_high_sil", "high_sil_isolated_checker", "mixed_sil_doer_checker", "dual_two_of_two", "one_of_two_failover", "low_sil_diverse_doer_checker"];
pat_recurring = [0, 2, 1, 2, 2, 3, 4, 2, 2];
pat_allowed = array2d(1..14, 1..9,
  [| false, false, true, false, false, false, false, false, true
     | true, false, true, false, false, false, false, false, true
     | true, false, true, false, false, false, false, false, true
     | true, false, true, false, false, false, false, false, true
     | false, false, true, false, false, false, false, false, true
     | true, false, true, false, false, false, false, false, true
     | false, false, true, false, false, false, false, false, true
     | false, false, true, false, false, false, false, false, true
     | true, false, true, false, false, false, false, false, true
     | true, false, true, false, false, false, false, false, true
     | true, false, true, false, false, false, false, false, true
     | false, false, true, false, false, false, false, false, true
     | true, false, true, false, false, false, false, false, true
     | false, false, true, false, false, false, false, false, true |]);
par_owner = [1, 2, 3, 4, 5, 6, 7, 1, 2, 3, 4, 5, 6, 7];
node_owner = [1, 2, 3, 4, 5, 6, 7, 1, 2, 3, 4, 5, 6, 7];
owner_node = [1, 2, 3, 4, 5, 6, 7, 1, 2, 3, 4, 5, 6, 7];
node_guard = array2d(1..14, 1..9,
  [| true, true, true, true, true, true, true, true, true
     | true, true, true, true, true, true, true, true, true
     | true, true, true, true, true, true, true, true, true
     | true, true, true, true, true, true, true, true, true
     | true, true, true, true, true, true, true, true, true
     | true, true, true, true, true, true, true, true, true
     | true, true, true, true, true, true, true, true, true
     | false, false, true, false, false, false, false, false, true
     | false, false, true, false, false, false, false, false, true
     | false, false, true, false, false, false, false, false, true
     | false, false, true, false, false, false, false, false, true
     | false, false, true, false, false, false, false, false, true
     | false, false, true, false, false, false, false, false, true
     | false, false, true, false, false, false, false, false, true |]);
nPE = 58;
pe_src = [1, 8, 1, 8, 2, 9, 1, 1, 2, 9, 1, 1, 3, 10, 2, 2, 3, 10, 2, 2, 4, 11, 3, 3, 4, 11, 3, 3, 5, 12, 4, 4, 1, 5, 12, 4, 4, 1, 6, 13, 4, 5, 5, 5, 6, 13, 4, 5, 5, 5, 7, 14, 6, 1, 7, 14, 6, 1];
pe_dst = [8, 1, 8, 1, 9, 2, 9, 9, 9, 2, 9, 9, 10, 3, 10, 10, 10, 3, 10, 10, 11, 4, 11, 11, 11, 4, 11, 11, 12, 5, 12, 12, 12, 12, 5, 12, 12, 12, 13, 6, 13, 13, 13, 13, 13, 6, 13, 13, 13, 13, 14, 7, 14, 14, 14, 7, 14, 14];
pe_tok = [0, 1, 0, 1, 0, 1, 0, 0, 0, 1, 0, 0, 0, 1, 0, 0, 0, 1, 0, 0, 0, 1, 0, 0, 0, 1, 0, 0, 0, 1, 0, 0, 0, 0, 1, 0, 0, 0, 0, 1, 0, 0, 0, 0, 0, 1, 0, 0, 0, 0, 0, 1, 0, 0, 0, 1, 0, 0];
pe_owner = [1, 1, 1, 1, 2, 2, 2, 2, 2, 2, 2, 2, 3, 3, 3, 3, 3, 3, 3, 3, 4, 4, 4, 4, 4, 4, 4, 4, 5, 5, 5, 5, 5, 5, 5, 5, 5, 5, 6, 6, 6, 6, 6, 6, 6, 6, 6, 6, 6, 6, 7, 7, 7, 7, 7, 7, 7, 7];
pe_guard = array2d(1..58, 1..9,
  [| false, false, true, false, false, false, false, false, false
     | false, false, true, false, false, false, false, false, false
     | false, false, false, false, false, false, false, false, true
     | false, false, false, false, false, false, false, false, true
     | false, false, true, false, false, false, false, false, false
     | false, false, true, false, false, false, false, false, false
     | false, false, true, false, false, false, false, false, false
     | false, false, true, false, false, false, false, false, false
     | false, false, false, false, false, false, false, false, true
     | false, false, false, false, false, false, false, false, true
     | false, false, false, false, false, false, false, false, true
     | false, false, false, false, false, false, false, false, true
     | false, false, true, false, false, false, false, false, false
     | false, false, true, false, false, false, false, false, false
     | false, false, true, false, false, false, false, false, false
     | false, false, true, false, false, false, false, false, false
     | false, false, false, false, false, false, false, false, true
     | false, false, false, false, false, false, false, false, true
     | false, false, false, false, false, false, false, false, true
     | false, false, false, false, false, false, false, false, true
     | false, false, true, false, false, false, false, false, false
     | false, false, true, false, false, false, false, false, false
     | false, false, true, false, false, false, false, false, false
     | false, false, true, false, false, false, false, false, false
     | false, false, false, false, false, false, false, false, true
     | false, false, false, false, false, false, false, false, true
     | false, false, false, false, false, false, false, false, true
     | false, false, false, false, false, false, false, false, true
     | false, false, true, false, false, false, false, false, false
     | false, false, true, false, false, false, false, false, false
     | false, false, true, false, false, false, false, false, false
     | false, false, true, false, false, false, false, false, false
     | false, false, true, false, false, false, false, false, false
     | false, false, false, false, false, false, false, false, true
     | false, false, false, false, false, false, false, false, true
     | false, false, false, false, false, false, false, false, true
     | false, false, false, false, false, false, false, false, true
     | false, false, false, false, false, false, false, false, true
     | false, false, true, false, false, false, false, false, false
     | false, false, true, false, false, false, false, false, false
     | false, false, true, false, false, false, false, false, false
     | false, false, true, false, false, false, false, false, false
     | false, false, true, false, false, false, false, false, false
     | false, false, true, false, false, false, false, false, false
     | false, false, false, false, false, false, false, false, true
     | false, false, false, false, false, false, false, false, true
     | false, false, false, false, false, false, false, false, true
     | false, false, false, false, false, false, false, false, true
     | false, false, false, false, false, false, false, false, true
     | false, false, false, false, false, false, false, false, true
     | false, false, true, false, false, false, false, false, false
     | false, false, true, false, false, false, false, false, false
     | false, false, true, false, false, false, false, false, false
     | false, false, true, false, false, false, false, false, false
     | false, false, false, false, false, false, false, false, true
     | false, false, false, false, false, false, false, false, true
     | false, false, false, false, false, false, false, false, true
     | false, false, false, false, false, false, false, false, true |]);
nPL = 14;
pl_u = [1, 1, 2, 2, 3, 3, 4, 4, 5, 5, 6, 6, 7, 7];
pl_v = [8, 8, 9, 9, 10, 10, 11, 11, 12, 12, 13, 13, 14, 14];
pl_rel = [1, 4, 1, 4, 1, 4, 1, 4, 1, 4, 1, 4, 1, 4];
pl_owner = [1, 1, 2, 2, 3, 3, 4, 4, 5, 5, 6, 6, 7, 7];
pl_guard = array2d(1..14, 1..9,
  [| false, false, true, false, false, false, false, false, false
     | false, false, false, false, false, false, false, false, true
     | false, false, true, false, false, false, false, false, false
     | false, false, false, false, false, false, false, false, true
     | false, false, true, false, false, false, false, false, false
     | false, false, false, false, false, false, false, false, true
     | false, false, true, false, false, false, false, false, false
     | false, false, false, false, false, false, false, false, true
     | false, false, true, false, false, false, false, false, false
     | false, false, false, false, false, false, false, false, true
     | false, false, true, false, false, false, false, false, false
     | false, false, false, false, false, false, false, false, true
     | false, false, true, false, false, false, false, false, false
     | false, false, false, false, false, false, false, false, true |]);
