% Generated by SafeDSE build_dzn.py -- do not edit by hand.
% applications : a_sobel, b_susan, c_rasta
% platform     : demo_platform
% period mode  : global   (C.7)
% fault model  : random_hw
% cost profile : myklebust2015  [100, 113, 225, 518, 906]

% ---- applications ----
nApps = 3;
n = 16;
app = [1, 1, 1, 1, 2, 2, 2, 2, 2, 3, 3, 3, 3, 3, 3, 3];
nParents = 16;
parent = [1, 2, 3, 4, 5, 6, 7, 8, 9, 10, 11, 12, 13, 14, 15, 16];
copy_index = [0, 0, 0, 0, 0, 0, 0, 0, 0, 0, 0, 0, 0, 0, 0, 0];
node_name = ["a_sobel.get_pixel", "a_sobel.gx", "a_sobel.gy", "a_sobel.abs", "b_susan.getImage", "b_susan.usan", "b_susan.direction", "b_susan.thin", "b_susan.putImage", "c_rasta.frontEnd", "c_rasta.rasta", "c_rasta.powspec", "c_rasta.audspec", "c_rasta.compJah", "c_rasta.rastaFilter", "c_rasta.backEnd"];
parent_name = ["a_sobel.get_pixel", "a_sobel.gx", "a_sobel.gy", "a_sobel.abs", "b_susan.getImage", "b_susan.usan", "b_susan.direction", "b_susan.thin", "b_susan.putImage", "c_rasta.frontEnd", "c_rasta.rasta", "c_rasta.powspec", "c_rasta.audspec", "c_rasta.compJah", "c_rasta.rastaFilter", "c_rasta.backEnd"];
tok = array2d(1..16, 1..16,
  [| 1, 0, 0, -1, -1, -1, -1, -1, -1, -1, -1, -1, -1, -1, -1, -1
       | -1, 1, -1, 0, -1, -1, -1, -1, -1, -1, -1, -1, -1, -1, -1, -1
       | -1, -1, 1, 0, -1, -1, -1, -1, -1, -1, -1, -1, -1, -1, -1, -1
       | -1, -1, -1, 1, -1, -1, -1, -1, -1, -1, -1, -1, -1, -1, -1, -1
       | -1, -1, -1, -1, 1, 0, -1, -1, -1, -1, -1, -1, -1, -1, -1, -1
       | -1, -1, -1, -1, -1, 1, 0, -1, -1, -1, -1, -1, -1, -1, -1, -1
       | -1, -1, -1, -1, -1, -1, 1, 0, -1, -1, -1, -1, -1, -1, -1, -1
       | -1, -1, -1, -1, -1, -1, -1, 1, 0, -1, -1, -1, -1, -1, -1, -1
       | -1, -1, -1, -1, -1, -1, -1, -1, 1, -1, -1, -1, -1, -1, -1, -1
       | -1, -1, -1, -1, -1, -1, -1, -1, -1, 1, 0, -1, -1, 0, -1, 0
       | -1, -1, -1, -1, -1, -1, -1, -1, -1, -1, 1, 0, -1, -1, -1, -1
       | -1, -1, -1, -1, -1, -1, -1, -1, -1, -1, -1, 1, 0, -1, -1, -1
       | -1, -1, -1, -1, -1, -1, -1, -1, -1, -1, -1, -1, 1, 0, 0, -1
       | -1, -1, -1, -1, -1, -1, -1, -1, -1, -1, -1, -1, -1, 1, 0, -1
       | -1, -1, -1, -1, -1, -1, -1, -1, -1, -1, -1, -1, -1, -1, 1, 0
       | -1, -1, -1, -1, -1, -1, -1, -1, -1, -1, -1, -1, -1, -1, -1, 1 |]);

% ---- platform (C.5) ----
P = 9;
nFCR = 9;
nCoreTypes = 2;
nModes = 3;
ctype = [1, 1, 1, 1, 1, 2, 1, 1, 1];
fcr = [1, 2, 3, 4, 5, 6, 7, 8, 9];
core_model = ["default", "CS_HWacc"];
max_sil = [0, 0];
core_mem = [20000, 20000];
partitionable = [false, false];
partition_cost = [0, 0];
n_modes_of = [3, 1];
fcr_price = [0, 0, 0, 0, 0, 0, 0, 0, 0];
core_price = array2d(1..2, 1..3,
  [| 8, 10, 12
     | 8, 0, 0 |]);
core_power = array2d(1..2, 1..3,
  [| 51, 100, 173
     | 40, 0, 0 |]);

% symmetry classes: slots that are genuinely interchangeable (C.5)
nSymClasses = 0;
symClassSize = [];
maxSymClassSize = 1;
symClass = array2d(1..1, 1..1,
  [| 0 |]);
nInterGroups = 1;
maxInterGroupSize = 8;
interGroupSize = [8];
interGroup = array2d(1..1, 1..8,
  [| 1, 2, 3, 4, 5, 7, 8, 9 |]);
nTmplGroups = 1;
maxTmplGroupSize = 8;
tmplGroupSize = [8];
tmplGroup = array2d(1..1, 1..8,
  [| 1, 2, 3, 4, 5, 7, 8, 9 |]);

% ---- timing ----
wcet = array3d(1..16, 1..2, 1..3, [384, 320, 256, 1000000, 1000000, 1000000, 93, 77, 62, 1000000, 1000000, 1000000, 93, 77, 62, 1000000, 1000000, 1000000, 148, 123, 99, 1000000, 1000000, 1000000, 18, 15, 12, 1000000, 1000000, 1000000, 1413, 1177, 942, 1000000, 1000000, 1000000, 1000, 833, 667, 1000000, 1000000, 1000000, 39, 32, 26, 1000000, 1000000, 1000000, 18, 15, 12, 1000000, 1000000, 1000000, 170, 141, 113, 1000000, 1000000, 1000000, 38, 31, 25, 1000000, 1000000, 1000000, 282, 235, 188, 1000000, 1000000, 1000000, 130, 108, 87, 1000000, 1000000, 1000000, 130, 108, 87, 1000000, 1000000, 1000000, 233, 194, 156, 1000000, 1000000, 1000000, 160, 133, 107, 1000000, 1000000, 1000000]);
mem_req = [2, 4, 4, 5, 2, 4, 4, 5, 5, 2, 4, 6, 5, 4, 7, 5];

% ---- safety (C.8) ----
sil_req_parent = [0, 0, 0, 0, 0, 0, 0, 0, 0, 0, 0, 0, 0, 0, 0, 0];
dev_base = [100, 100, 100, 100, 100, 100, 100, 100, 100, 100, 100, 100, 100, 100, 100, 100];
dev_k = array1d(0..4, [100, 113, 225, 518, 906]);
allow_promotion = true;

% ---- design constraints ----
period_ub = [400, 2050, 550];
min_wcet = [256, 62, 62, 99, 12, 942, 667, 26, 12, 113, 25, 188, 87, 87, 156, 107];
min_procs = [2, 1, 2];
period_mode_partitioned = false;

% ---- latency (B.2) ----
nLatCon = 0;
lat_src = [];
lat_dst = [];
lat_rho = [];
lat_ub  = [];

% ---- safety patterns: guarded superposition (C.2) ----
% no pattern library supplied -- single trivial `none` pattern
nPat = 1;
pat_name = ["none"];
pat_recurring = [0];
pat_allowed = array2d(1..16, 1..1, [true, true, true, true, true, true, true, true, true, true, true, true, true, true, true, true]);
par_owner = [1, 2, 3, 4, 5, 6, 7, 8, 9, 10, 11, 12, 13, 14, 15, 16];
node_owner = [1, 2, 3, 4, 5, 6, 7, 8, 9, 10, 11, 12, 13, 14, 15, 16];
owner_node = [1, 2, 3, 4, 5, 6, 7, 8, 9, 10, 11, 12, 13, 14, 15, 16];
node_guard = array2d(1..16, 1..1, [true, true, true, true, true, true, true, true, true, true, true, true, true, true, true, true]);
nPE = 0;  pe_src = [1];  pe_dst = [1];  pe_tok = [0];  pe_owner = [1];
pe_guard = array2d(1..1, 1..1, [false]);
nPL = 0;  pl_u = [1];  pl_v = [1];  pl_rel = [1];  pl_owner = [1];
pl_guard = array2d(1..1, 1..1, [false]);

% ---- TDMA communication ----
nCh = 0;
ch_src = [1]; ch_dst = [1]; ch_msgsize = [0]; ch_app = [1];
ch_block = [1]; ch_send = [1]; ch_rec = [1]; ch_slots_needed = [1];
ch_rounds = array2d(1..1, 0..9, [0, 0, 0, 0, 0, 0, 0, 0, 0, 0]);
tdma_slots = 9;
tdma_cycle_len = 1;
data_per_slot = 32;
max_buf = 4;
ni_capacity = 100000;
nSep = 0;  sep_a = [1];  sep_b = [1];
