% Generated by SafeDSE build_dzn.py -- do not edit by hand.
% applications : a_sobel
% platform     : demo_platform
% period mode  : global   (C.7)
% fault model  : random_hw
% cost profile : myklebust2015  [100, 113, 225, 518, 906]

% ---- applications ----
nApps = 1;
n = 4;
app = [1, 1, 1, 1];
nParents = 4;
parent = [1, 2, 3, 4];
copy_index = [0, 0, 0, 0];
node_name = ["a_sobel.get_pixel", "a_sobel.gx", "a_sobel.gy", "a_sobel.abs"];
parent_name = ["a_sobel.get_pixel", "a_sobel.gx", "a_sobel.gy", "a_sobel.abs"];
tok = array2d(1..4, 1..4,
  [| 1, 0, 0, -1
       | -1, 1, -1, 0
       | -1, -1, 1, 0
       | -1, -1, -1, 1 |]);

% ---- platform (C.5) ----
P = 9;
nFCR = 9;
nCoreTypes = 2;
nModes = 3;
ctype = [1, 1, 1, 1, 1, 2, 1, 1, 1];
fcr = [1, 2, 3, 4, 5, 6, 7, 8, 9];
core_model = ["default", "CS_HWacc"];
max_sil = [0, 0];
core_mem = [20000, 20000];
partitionable = [false, false];
partition_cost = [0, 0];
n_modes_of = [3, 1];
fcr_price = [0, 0, 0, 0, 0, 0, 0, 0, 0];
core_price = array2d(1..2, 1..3,
  [| 8, 10, 12
     | 8, 0, 0 |]);
core_power = array2d(1..2, 1..3,
  [| 51, 100, 173
     | 40, 0, 0 |]);

% symmetry classes: slots that are genuinely interchangeable (C.5)
nSymClasses = 0;
symClassSize = [];
maxSymClassSize = 1;
symClass = array2d(1..1, 1..1,
  [| 0 |]);
nInterGroups = 1;
maxInterGroupSize = 8;
interGroupSize = [8];
interGroup = array2d(1..1, 1..8,
  [| 1, 2, 3, 4, 5, 7, 8, 9 |]);
nTmplGroups = 1;
maxTmplGroupSize = 8;
tmplGroupSize = [8];
tmplGroup = array2d(1..1, 1..8,
  [| 1, 2, 3, 4, 5, 7, 8, 9 |]);

% ---- timing ----
wcet = array3d(1..4, 1..2, 1..3, [384, 320, 256, 1000000, 1000000, 1000000, 93, 77, 62, 1000000, 1000000, 1000000, 93, 77, 62, 1000000, 1000000, 1000000, 148, 123, 99, 1000000, 1000000, 1000000]);
mem_req = [2, 4, 4, 5];

% ---- safety (C.8) ----
sil_req_parent = [0, 0, 0, 0];
dev_base = [100, 100, 100, 100];
dev_k = array1d(0..4, [100, 113, 225, 518, 906]);
allow_promotion = true;

% ---- design constraints ----
period_ub = [400];
period_mode_partitioned = false;

% ---- latency (B.2) ----
nLatCon = 0;
lat_src = [];
lat_dst = [];
lat_rho = [];
lat_ub  = [];
