% Generated by SafeDSE build_dzn.py -- do not edit by hand.
% applications : c_rasta
% platform     : demo_platform
% period mode  : global   (C.7)
% fault model  : random_hw
% cost profile : myklebust2015  [100, 113, 225, 518, 906]

% ---- applications ----
nApps = 1;
n = 7;
app = [1, 1, 1, 1, 1, 1, 1];
nParents = 7;
parent = [1, 2, 3, 4, 5, 6, 7];
copy_index = [0, 0, 0, 0, 0, 0, 0];
node_name = ["c_rasta.frontEnd", "c_rasta.rasta", "c_rasta.powspec", "c_rasta.audspec", "c_rasta.compJah", "c_rasta.rastaFilter", "c_rasta.backEnd"];
parent_name = ["c_rasta.frontEnd", "c_rasta.rasta", "c_rasta.powspec", "c_rasta.audspec", "c_rasta.compJah", "c_rasta.rastaFilter", "c_rasta.backEnd"];
tok = array2d(1..7, 1..7,
  [| 1, 0, -1, -1, 0, -1, 0
       | -1, 1, 0, -1, -1, -1, -1
       | -1, -1, 1, 0, -1, -1, -1
       | -1, -1, -1, 1, 0, 0, -1
       | -1, -1, -1, -1, 1, 0, -1
       | -1, -1, -1, -1, -1, 1, 0
       | -1, -1, -1, -1, -1, -1, 1 |]);

% ---- platform (C.5) ----
P = 9;
nFCR = 9;
nCoreTypes = 2;
nModes = 3;
ctype = [1, 1, 1, 1, 1, 2, 1, 1, 1];
fcr = [1, 2, 3, 4, 5, 6, 7, 8, 9];
core_model = ["default", "CS_HWacc"];
max_sil = [0, 0];
core_mem = [20000, 20000];
partitionable = [false, false];
partition_cost = [0, 0];
n_modes_of = [3, 1];
fcr_price = [0, 0, 0, 0, 0, 0, 0, 0, 0];
core_price = array2d(1..2, 1..3,
  [| 8, 10, 12
     | 8, 0, 0 |]);
core_power = array2d(1..2, 1..3,
  [| 51, 100, 173
     | 40, 0, 0 |]);

% symmetry classes: slots that are genuinely interchangeable (C.5)
nSymClasses = 0;
symClassSize = [];
maxSymClassSize = 1;
symClass = array2d(1..1, 1..1,
  [| 0 |]);
nInterGroups = 1;
maxInterGroupSize = 8;
interGroupSize = [8];
interGroup = array2d(1..1, 1..8,
  [| 1, 2, 3, 4, 5, 7, 8, 9 |]);
nTmplGroups = 1;
maxTmplGroupSize = 8;
tmplGroupSize = [8];
tmplGroup = array2d(1..1, 1..8,
  [| 1, 2, 3, 4, 5, 7, 8, 9 |]);

% ---- timing ----
wcet = array3d(1..7, 1..2, 1..3, [170, 141, 113, 1000000, 1000000, 1000000, 38, 31, 25, 1000000, 1000000, 1000000, 282, 235, 188, 1000000, 1000000, 1000000, 130, 108, 87, 1000000, 1000000, 1000000, 130, 108, 87, 1000000, 1000000, 1000000, 233, 194, 156, 1000000, 1000000, 1000000, 160, 133, 107, 1000000, 1000000, 1000000]);
mem_req = [2, 4, 6, 5, 4, 7, 5];

% ---- safety (C.8) ----
sil_req_parent = [0, 0, 0, 0, 0, 0, 0];
dev_base = [100, 100, 100, 100, 100, 100, 100];
dev_k = array1d(0..4, [100, 113, 225, 518, 906]);
allow_promotion = true;

% ---- design constraints ----
period_ub = [550];
period_mode_partitioned = false;

% ---- latency (B.2) ----
nLatCon = 0;
lat_src = [];
lat_dst = [];
lat_rho = [];
lat_ub  = [];
