% Generated by SafeDSE build_dzn.py -- do not edit by hand.
% applications : d_jpegEnc1
% platform     : demo_platform
% period mode  : global   (C.7)
% fault model  : random_hw
% cost profile : myklebust2015  [100, 113, 225, 518, 906]

% ---- applications ----
nApps = 1;
n = 16;
app = [1, 1, 1, 1, 1, 1, 1, 1, 1, 1, 1, 1, 1, 1, 1, 1];
nParents = 16;
parent = [1, 2, 3, 4, 5, 6, 7, 8, 9, 10, 11, 12, 13, 14, 15, 16];
copy_index = [0, 0, 0, 0, 0, 0, 0, 0, 0, 0, 0, 0, 0, 0, 0, 0];
node_name = ["d_jpegEnc1.getImage_0", "d_jpegEnc1.CC_0", "d_jpegEnc1.DCT_0", "d_jpegEnc1.Huffman_0", "d_jpegEnc1.DCT_1", "d_jpegEnc1.Huffman_1", "d_jpegEnc1.DCT_2", "d_jpegEnc1.Huffman_2", "d_jpegEnc1.DCT_3", "d_jpegEnc1.Huffman_3", "d_jpegEnc1.DCT_4", "d_jpegEnc1.Huffman_4", "d_jpegEnc1.DCT_5", "d_jpegEnc1.Huffman_5", "d_jpegEnc1.CS_0", "d_jpegEnc1.writeImage_0"];
parent_name = ["d_jpegEnc1.getImage_0", "d_jpegEnc1.CC_0", "d_jpegEnc1.DCT_0", "d_jpegEnc1.Huffman_0", "d_jpegEnc1.DCT_1", "d_jpegEnc1.Huffman_1", "d_jpegEnc1.DCT_2", "d_jpegEnc1.Huffman_2", "d_jpegEnc1.DCT_3", "d_jpegEnc1.Huffman_3", "d_jpegEnc1.DCT_4", "d_jpegEnc1.Huffman_4", "d_jpegEnc1.DCT_5", "d_jpegEnc1.Huffman_5", "d_jpegEnc1.CS_0", "d_jpegEnc1.writeImage_0"];
tok = array2d(1..16, 1..16,
  [| 1, 0, -1, -1, -1, -1, -1, -1, -1, -1, -1, -1, -1, -1, -1, -1
       | -1, 1, 0, -1, 0, -1, 0, -1, 0, -1, 0, -1, 0, -1, -1, -1
       | -1, -1, 1, 0, -1, -1, -1, -1, -1, -1, -1, -1, -1, -1, -1, -1
       | -1, -1, -1, 1, -1, -1, -1, -1, -1, -1, -1, -1, -1, -1, 0, -1
       | -1, -1, -1, -1, 1, 0, -1, -1, -1, -1, -1, -1, -1, -1, -1, -1
       | -1, -1, -1, -1, -1, 1, -1, -1, -1, -1, -1, -1, -1, -1, 0, -1
       | -1, -1, -1, -1, -1, -1, 1, 0, -1, -1, -1, -1, -1, -1, -1, -1
       | -1, -1, -1, -1, -1, -1, -1, 1, -1, -1, -1, -1, -1, -1, 0, -1
       | -1, -1, -1, -1, -1, -1, -1, -1, 1, 0, -1, -1, -1, -1, -1, -1
       | -1, -1, -1, -1, -1, -1, -1, -1, -1, 1, -1, -1, -1, -1, 0, -1
       | -1, -1, -1, -1, -1, -1, -1, -1, -1, -1, 1, 0, -1, -1, -1, -1
       | -1, -1, -1, -1, -1, -1, -1, -1, -1, -1, -1, 1, -1, -1, 0, -1
       | -1, -1, -1, -1, -1, -1, -1, -1, -1, -1, -1, -1, 1, 0, -1, -1
       | -1, -1, -1, -1, -1, -1, -1, -1, -1, -1, -1, -1, -1, 1, 0, -1
       | -1, -1, -1, -1, -1, -1, -1, -1, -1, -1, -1, -1, -1, -1, 1, 0
       | -1, -1, -1, -1, -1, -1, -1, -1, -1, -1, -1, -1, -1, -1, -1, 1 |]);

% ---- platform (C.5) ----
P = 9;
nFCR = 9;
nCoreTypes = 2;
nModes = 3;
ctype = [1, 1, 1, 1, 1, 2, 1, 1, 1];
fcr = [1, 2, 3, 4, 5, 6, 7, 8, 9];
core_model = ["default", "CS_HWacc"];
max_sil = [0, 0];
core_mem = [20000, 20000];
partitionable = [false, false];
partition_cost = [0, 0];
n_modes_of = [3, 1];
fcr_price = [0, 0, 0, 0, 0, 0, 0, 0, 0];
core_price = array2d(1..2, 1..3,
  [| 8, 10, 12
     | 8, 0, 0 |]);
core_power = array2d(1..2, 1..3,
  [| 51, 100, 173
     | 40, 0, 0 |]);

% symmetry classes: slots that are genuinely interchangeable (C.5)
nSymClasses = 0;
symClassSize = [];
maxSymClassSize = 1;
symClass = array2d(1..1, 1..1,
  [| 0 |]);
nInterGroups = 1;
maxInterGroupSize = 8;
interGroupSize = [8];
interGroup = array2d(1..1, 1..8,
  [| 1, 2, 3, 4, 5, 7, 8, 9 |]);
nTmplGroups = 1;
maxTmplGroupSize = 8;
tmplGroupSize = [8];
tmplGroup = array2d(1..1, 1..8,
  [| 1, 2, 3, 4, 5, 7, 8, 9 |]);

% ---- timing ----
wcet = array3d(1..16, 1..2, 1..3, [496, 413, 331, 1000000, 1000000, 1000000, 1322, 1101, 881, 1000000, 1000000, 1000000, 303, 252, 202, 1000000, 1000000, 1000000, 408, 340, 272, 1000000, 1000000, 1000000, 303, 252, 202, 1000000, 1000000, 1000000, 408, 340, 272, 1000000, 1000000, 1000000, 303, 252, 202, 1000000, 1000000, 1000000, 408, 340, 272, 1000000, 1000000, 1000000, 303, 252, 202, 1000000, 1000000, 1000000, 408, 340, 272, 1000000, 1000000, 1000000, 303, 252, 202, 1000000, 1000000, 1000000, 408, 340, 272, 1000000, 1000000, 1000000, 303, 252, 202, 1000000, 1000000, 1000000, 408, 340, 272, 1000000, 1000000, 1000000, 3029, 2524, 2020, 1388, 1000000, 1000000, 159, 132, 106, 1000000, 1000000, 1000000]);
mem_req = [8, 4, 6, 5, 6, 5, 6, 5, 6, 5, 6, 5, 6, 5, 4, 5];

% ---- safety (C.8) ----
sil_req_parent = [0, 0, 0, 0, 0, 0, 0, 0, 0, 0, 0, 0, 0, 0, 0, 0];
dev_base = [100, 100, 100, 100, 100, 100, 100, 100, 100, 100, 100, 100, 100, 100, 100, 100];
dev_k = array1d(0..4, [100, 113, 225, 518, 906]);
allow_promotion = true;

% ---- design constraints ----
period_ub = [9272];
min_wcet = [331, 881, 202, 272, 202, 272, 202, 272, 202, 272, 202, 272, 202, 272, 1388, 106];
min_procs = [1];
period_mode_partitioned = false;

% ---- latency (B.2) ----
nLatCon = 0;
lat_src = [];
lat_dst = [];
lat_rho = [];
lat_ub  = [];

% ---- safety patterns: guarded superposition (C.2) ----
% no pattern library supplied -- single trivial `none` pattern
nPat = 1;
pat_name = ["none"];
pat_recurring = [0];
pat_allowed = array2d(1..16, 1..1, [true, true, true, true, true, true, true, true, true, true, true, true, true, true, true, true]);
par_owner = [1, 2, 3, 4, 5, 6, 7, 8, 9, 10, 11, 12, 13, 14, 15, 16];
node_owner = [1, 2, 3, 4, 5, 6, 7, 8, 9, 10, 11, 12, 13, 14, 15, 16];
owner_node = [1, 2, 3, 4, 5, 6, 7, 8, 9, 10, 11, 12, 13, 14, 15, 16];
node_guard = array2d(1..16, 1..1, [true, true, true, true, true, true, true, true, true, true, true, true, true, true, true, true]);
nPE = 0;  pe_src = [1];  pe_dst = [1];  pe_tok = [0];  pe_owner = [1];
pe_guard = array2d(1..1, 1..1, [false]);
nPL = 0;  pl_u = [1];  pl_v = [1];  pl_rel = [1];  pl_owner = [1];
pl_guard = array2d(1..1, 1..1, [false]);

% ---- TDMA communication ----
nCh = 0;
ch_src = [1]; ch_dst = [1]; ch_msgsize = [0]; ch_app = [1];
ch_block = [1]; ch_send = [1]; ch_rec = [1]; ch_slots_needed = [1];
ch_rounds = array2d(1..1, 0..9, [0, 0, 0, 0, 0, 0, 0, 0, 0, 0]);
tdma_slots = 9;
tdma_cycle_len = 1;
data_per_slot = 32;
max_buf = 4;
ni_capacity = 100000;
nSep = 0;  sep_a = [1];  sep_b = [1];
