n=10;
P=4;
tok=[|1,0,-1,-1,-1,-1,-1,-1,-1,-1 | -1,1,0,-1,-1,-1,-1,-1,-1,-1 | -1,-1,1,0,-1,-1,-1,-1,-1,-1 | -1,-1,-1,1,0,-1,-1,-1,-1,-1 | -1,-1,-1,-1,1,0,-1,-1,-1,-1 | -1,-1,-1,-1,-1,1,0,-1,-1,-1 | -1,-1,-1,-1,-1,-1,1,0,-1,-1 | -1,-1,-1,-1,-1,-1,-1,1,0,0 | -1,-1,-1,-1,-1,-1,-1,-1,1,0 | -1,-1,-1,-1,-1,-1,-1,-1,-1,1|];
T=[5, 4, 9, 4, 3, 9, 6, 4, 3, 2];
sil_req=[1, 3, 1, 1, 1, 1, 1, 3, 3, 1];
pcost=[10,10,10,10];
dev_base=[10,10,10,10,10,10,10,10,10,10];
dev_k=array1d(0..4,[10,10,14,22,35]);
% suggested: mu_max=19  (40% of sum WCET)
